NAME : random95.780.tour
COMMENT : Length = 780
COMMENT : Found by LKH [Keld Helsgaun] Thu Sep 26 17:27:12 2024
TYPE : TOUR
DIMENSION : 95
TOUR_SECTION
1
14
25
12
69
56
18
84
90
77
19
26
29
89
37
71
28
92
30
72
95
53
21
64
79
32
10
45
61
82
76
34
17
59
7
41
87
88
83
73
81
4
80
51
2
27
49
47
63
91
5
85
23
60
36
78
94
52
67
3
6
31
15
8
16
54
24
70
13
48
46
33
38
68
57
62
86
55
58
42
40
35
11
22
44
9
65
20
50
74
66
75
93
39
43
-1
EOF
